set VV := 0 1 2 3 4 5 6 ;
set VS := 0 1 2 3 4 5 6 7 8 9 10 11 12 13 14 15 16 17 ;
param cv := 
0 11
1 24
2 13
3 22
4 18
5 15
6 24
;
param cs := 
0 30
1 31
2 27
3 34
4 33
5 26
6 34
7 25
8 22
9 26
10 21
11 31
12 27
13 33
14 30
15 31
16 33
17 32
;
param bv:	 0 1 2 3 4 5 6 := 
		0 0 0 0 0 13 0 0 
		1 0 0 0 0 0 21 0 
		2 0 0 0 0 22 0 0 
		3 0 0 0 0 0 14 0 
		4 0 0 0 0 0 0 13 
		5 0 0 0 0 0 0 12 
		6 0 0 0 0 0 0 0 
;
param bs:	 0 1 2 3 4 5 6 7 8 9 10 11 12 13 14 15 16 17 := 
		0 0 30 0 0 0 0 0 0 36 0 39 0 0 0 0 38 38 0 
		1 30 0 37 21 0 0 39 33 0 0 0 0 0 0 25 0 0 0 
		2 0 37 0 0 0 0 0 0 0 0 0 0 0 0 0 0 0 27 
		3 0 21 0 0 0 0 0 0 0 0 0 0 0 0 37 0 0 0 
		4 0 0 0 0 0 0 0 29 0 0 0 0 0 24 0 0 0 0 
		5 0 0 0 0 0 0 0 0 0 0 35 0 0 0 0 28 0 0 
		6 0 39 0 0 0 0 0 0 38 0 0 24 0 0 26 0 0 0 
		7 0 33 0 0 29 0 0 0 0 0 0 0 0 0 0 0 0 0 
		8 36 0 0 0 0 0 38 0 0 0 0 0 30 0 0 0 0 0 
		9 0 0 0 0 0 0 0 0 0 0 0 26 0 0 0 0 0 0 
		10 39 0 0 0 0 35 0 0 0 0 0 0 0 0 0 0 0 0 
		11 0 0 0 0 0 0 24 0 0 26 0 0 0 0 0 0 0 0 
		12 0 0 0 0 0 0 0 0 30 0 0 0 0 0 0 0 29 0 
		13 0 0 0 0 24 0 0 0 0 0 0 0 0 0 0 0 0 0 
		14 0 25 0 37 0 0 26 0 0 0 0 0 0 0 0 0 0 0 
		15 38 0 0 0 0 28 0 0 0 0 0 0 0 0 0 0 0 31 
		16 38 0 0 0 0 0 0 0 0 0 0 0 29 0 0 0 0 0 
		17 0 0 27 0 0 0 0 0 0 0 0 0 0 0 0 31 0 0 
;
